28 35 70 64 76 54 73 21 19 23 44 47 55 27 33 25 6 88 5 84 12 77 71 10 78 61 58 7 74 90 39 92 26 83 65 60 46 3 79 66 97 17 31 91 16 20 53 34 30 37 94 15 57 40 2 87 36 41 62 69 86 93 51 98 82 0 48 96 95 9 29 99 1 85 49 67 32 81 50 52 24 43 13 63 89 75 80 45 68 14 18 22 11 72 38 56 8 42 59 4 

